language ESSENCE' 1.0
$ minion Nodes: 1
$ minion TotalTime: 0.140401
$ minion TimeOut: 0
$ Savile Row TotalTime: 0.09
letting d be 7
letting e be 5
letting m be 1
letting n be 6
letting o be 0
letting r be 8
letting s be 9
letting y be 2
